120
150
79
35
55
63
51
32
99
35
55
55
42
43
79
64
29
79
25
87
46
43
51
20
79
90
28
32
29
22
55
95
79
94
77
35
68
77
26
96
24
65
24
81
79
87
35
95
33
89
79
95
79
23
99
83
83
30
95
86
55
81
91
28
64
85
20
75
22
79
79
100
89
50
89
61
24
55
21
36
100
50
38
89
26
20
55
23
67
99
23
87
87
94
51
97
56
63
77
65
95
55
95
69
70
28
66
55
35
75
70
70
70
26
95
55
70
72
25
28
68
35
